NAME : graph13
COMMENT : H Algorithm Solution by Oscar Riveros [http://twitter.com/maxtuno]
TYPE : TOUR
DIMENSION : 138
TOUR_SECTION
101
44
86
85
135
69
60
102
22
8
110
75
136
128
106
65
100
98
25
105
28
4
116
31
84
21
50
19
114
40
59
119
77
91
37
43
108
134
97
13
76
96
48
118
112
47
49
137
138
94
46
54
51
79
12
70
5
103
83
24
99
16
132
111
92
64
63
38
133
122
78
124
72
57
56
23
14
53
80
82
89
67
73
7
33
18
1
58
27
127
35
130
90
88
131
17
6
42
45
121
107
71
87
123
34
126
20
68
115
41
2
15
9
95
11
74
129
61
113
104
32
30
10
26
93
29
120
81
66
36
39
125
62
117
52
109
55
3
-1
EOF
